data;

#set M := 1 2 3 4 5 ;
#set F := 1 2 ;
#set I := 1 2 3 4 ;


param D:= 
1	12310
2	13870
3	2500
4	11120
5   10100;

param CapMin (tr)
    1   2   3   4:=
1	200    1520    803    212
2	1200    2970    1450    3010;


param CapMax (tr)
    1   2   3   4:=
1	1200    2970    1450    3010
2	2500    4300    2920    5500;

param Costo (tr)
    1 2 3 4:=
1	2.5 5.0 3.7 6.1
2	4.1 6.7 5.1 7.9;

param P:= 82300;